ATOMIC_SPECIES
C   12.011  C_ONCV_PBE-1.0.upf
Fe   55.845  Fe_ONCV_PBE-1.0.upf

NUMERICAL_ORBITAL
C_gga_7au_100Ry_2s2p1d.orb
Fe_gga_8au_100Ry_4s2p2d1f.orb

LATTICE_CONSTANT
1.889726

LATTICE_VECTORS
9.979660544196  0.000000000000  0.000000000000
-0.76394738811  12.66159699987  0.000000000000
0.000000000000  0.000000000000  19.64012554973

ATOMIC_POSITIONS
Direct

C 
0.000
36
0.029443602700  0.690172337400  0.009461774400  0  0  0  
0.529443602700  0.690172337400  0.009461774400  0  0  0  
0.253665471400  0.089195364200  0.020797981000  0  0  0  
0.753665471400  0.089195364200  0.020797981000  0  0  0  
0.090805919800  0.484136599200  0.023414585300  0  0  0  
0.590805919800  0.484136599200  0.023414585300  0  0  0  
0.491473601100  0.891711416900  0.065579289500  0  0  0  
0.991473601100  0.891711416900  0.065579289500  0  0  0  
0.323335936700  0.298394175700  0.074855855300  0  0  0  
0.823335936700  0.298394175700  0.074855855300  0  0  0  
0.233610528700  0.769465369900  0.102466107200  1  1  1  
0.733587321800  0.769431878500  0.102464973800  1  1  1  
0.061225983100  0.175881844700  0.119341848000  1  1  1  
0.561268767300  0.175896594900  0.119338534000  1  1  1  
0.469176077600  0.569262189600  0.172206991000  1  1  1  
0.969239311200  0.569289079200  0.172308386800  1  1  1  
0.293714550600  0.973885678900  0.187397066200  1  1  1  
0.793804609200  0.973854428600  0.187392063500  1  1  1  
0.209074309400  0.449835783800  0.204587748400  1  1  1  
0.708947807300  0.449861353200  0.204580830900  1  1  1  
0.032641085300  0.853418448800  0.218003099700  1  1  1  
0.532617045300  0.853427751700  0.217993180900  1  1  1  
0.441556514100  0.247615666200  0.271801031900  1  1  1  
0.941535450600  0.247626309600  0.271816496600  1  1  1  
0.269030445700  0.654092933200  0.288869987000  1  1  1  
0.769052412500  0.654107418300  0.288889888800  1  1  1  
0.178840473100  0.126073583700  0.317563935000  1  1  1  
0.678761923700  0.126118890000  0.317561856500  1  1  1  
0.011022047400  0.533676567400  0.324729957500  1  1  1  
0.510981808300  0.533699628700  0.324656850500  1  1  1  
0.411563776800  0.941093941600  0.369414968800  1  1  1  
0.911531692100  0.941093882900  0.369406631900  1  1  1  
0.249703837600  0.335943963700  0.370182931400  1  1  1  
0.749618984500  0.335962230200  0.370178116700  1  1  1  
0.473428437900  0.733449930900  0.385040959200  1  1  1  
0.973405923800  0.733448622900  0.385050299400  1  1  1  

Fe
2.000
80
0.131804283200  0.812574830500  0.025789190600  0  0  0  
0.631804283200  0.812574830500  0.025789190600  0  0  0  
0.252151551000  0.419436941800  0.030736651500  0  0  0  
0.752151551000  0.419436941800  0.030736651500  0  0  0  
0.189555235400  0.618543025200  0.030795170100  0  0  0  
0.689555235400  0.618543025200  0.030795170100  0  0  0  
0.081109657900  0.019457615000  0.033992411600  0  0  0  
0.581109657900  0.019457615000  0.033992411600  0  0  0  
0.167869136500  0.214033464100  0.037364101800  0  0  0  
0.667869136500  0.214033464100  0.037364101800  0  0  0  
0.383236599700  0.762775050800  0.038060511300  0  0  0  
0.883236599700  0.762775050800  0.038060511300  0  0  0  
0.437865606200  0.564034566600  0.039671410700  0  0  0  
0.937865606200  0.564034566600  0.039671410700  0  0  0  
0.324734261100  0.960471632800  0.044901871900  0  0  0  
0.824734261100  0.960471632800  0.044901871900  0  0  0  
0.412834241100  0.164590854300  0.048361660800  0  0  0  
0.912834241100  0.164590854300  0.048361660800  0  0  0  
0.000966667400  0.357478513100  0.049919771000  0  0  0  
0.500966667400  0.357478513100  0.049919771000  0  0  0  
0.107387865400  0.495794298900  0.126523999400  1  1  1  
0.607394879400  0.495788267100  0.126503995300  1  1  1  
0.223028823100  0.089994632200  0.133061813300  1  1  1  
0.723031495700  0.089975517300  0.133060098200  1  1  1  
0.057860579200  0.698315718500  0.135963868000  1  1  1  
0.557844904000  0.698343149300  0.135965262400  1  1  1  
0.141689253400  0.891955414600  0.138763686700  1  1  1  
0.641700197500  0.891952280900  0.138761913900  1  1  1  
0.359231629100  0.442277838700  0.140628892400  1  1  1  
0.859214417000  0.442326136200  0.140646970900  1  1  1  
0.172040780800  0.305944498300  0.144030752500  1  1  1  
0.672047972300  0.305972092700  0.144017118900  1  1  1  
0.303632166500  0.645993250500  0.147541095800  1  1  1  
0.803659160400  0.645973574100  0.147536013500  1  1  1  
0.386242236600  0.850321918300  0.149654428100  1  1  1  
0.886252327400  0.850295743100  0.149658328600  1  1  1  
0.469444769800  0.041145180800  0.150042070700  1  1  1  
0.969447579300  0.041141403100  0.150040951300  1  1  1  
0.414227047500  0.250402858700  0.160047763700  1  1  1  
0.914215896200  0.250407290700  0.160053290900  1  1  1  
0.088667967900  0.172599111100  0.231727821000  1  1  1  
0.588692580700  0.172623723900  0.231697726700  1  1  1  
0.033666008500  0.382485456800  0.241076481700  1  1  1  
0.533628886600  0.382509443500  0.241081217100  1  1  1  
0.116464780700  0.573988231400  0.242012409300  1  1  1  
0.616441630800  0.574063708500  0.241962518600  1  1  1  
0.197963185200  0.779489359700  0.246753505200  1  1  1  
0.697950607400  0.779486278800  0.246739038600  1  1  1  
0.330156245500  0.116905389900  0.247440662000  1  1  1  
0.830158036000  0.116899553400  0.247431029800  1  1  1  
0.142968697900  0.979892801600  0.251538222700  1  1  1  
0.642969028400  0.979897831600  0.251524604800  1  1  1  
0.361333734000  0.532664795900  0.252217503700  1  1  1  
0.861287763500  0.532635931800  0.252260772900  1  1  1  
0.279514200700  0.333965097700  0.258309960400  1  1  1  
0.779491980400  0.333980532500  0.258296563800  1  1  1  
0.444771923700  0.727773538500  0.258639026000  1  1  1  
0.944792579000  0.727730744200  0.258615834900  1  1  1  
0.395667449100  0.927220058000  0.266078069200  1  1  1  
0.895680862900  0.927202860500  0.266080937100  1  1  1  
0.001530293200  0.066968416900  0.342402173200  1  1  1  
0.501516461200  0.066970730700  0.342393304300  1  1  1  
0.090541327300  0.259848634500  0.343013874100  1  1  1  
0.590514685700  0.259860927700  0.342988085100  1  1  1  
0.177532073300  0.464415805300  0.348111204900  1  1  1  
0.677495747700  0.464441425600  0.348098667800  1  1  1  
0.119705803300  0.662070447500  0.353772661700  1  1  1  
0.619694336500  0.662061509800  0.353759207800  1  1  1  
0.335278689300  0.211654995900  0.353086150900  1  1  1  
0.835215361800  0.211667760500  0.353071520600  1  1  1  
0.064543940400  0.860996594600  0.358208988800  1  1  1  
0.564568926000  0.861005192300  0.358209888700  1  1  1  
0.423154738800  0.405127196300  0.356164390900  1  1  1  
0.923122828300  0.405096286500  0.356156664700  1  1  1  
0.250165375100  0.005329013300  0.361163341700  1  1  1  
0.750177695100  0.005385124500  0.361142906200  1  1  1  
0.313189696400  0.806662785800  0.364751651100  1  1  1  
0.813173764800  0.806665633900  0.364737260900  1  1  1  
0.371483505500  0.612398491500  0.365358035400  1  1  1  
0.871493278700  0.612398993900  0.365379402600  1  1  1  
