INPUT_PARAMETERS
# Basic
suffix          ABACUS
pseudo_dir      .
orbital_dir     .
device          cpu

# Control
calculation     scf
basis_type      lcao
ecutwfc         100

# Diagonalization
ks_solver       genelpa
scf_thr         1e-05
scf_thr_type    2
scf_ene_thr     1e-05
scf_nmax        100

# SCF technique
smearing_method gaussian
smearing_sigma  0.01
mixing_beta     0.2
mixing_ndim     30
mixing_gg0_mag  0.0

# System
gamma_only      0
symmetry        -1
noncolin        1
nspin           4
lspinorb        1

# CDFT and DFT+U
sc_mag_switch   1
sc_thr          1e-07
sc_scf_thr      10
nsc             100
nsc_min         2
alpha_trial     0.01
sccut           3.0
onsite_radius   3.0

# Brillouin zone sampling
kspacing        0.14
#kpar            4

# Output
cal_force       1
cal_stress      1
