ATOMIC_SPECIES
Si  14.0000 Si_ONCV_PBE-1.0.upf

NUMERICAL_ORBITAL
Si_gga_10au_100Ry_2s2p1d.orb

LATTICE_CONSTANT
1.8897268770

LATTICE_VECTORS
        3.8763414231       -0.0000000000        0.0000000000
        1.9381707116        3.3570101462       -0.0000000000
        1.9381707116        1.1190033821        3.1650195185

ATOMIC_POSITIONS
Direct

Si
0.0000
2
        0.0000000000        0.0000000000        0.0000000000 m 1 1 1
        0.2500000000        0.2500000000        0.2500000000 m 1 1 1
