ATOMIC_SPECIES
Si  14.0000 Si_ONCV_PBE-1.0.upf upf201

LATTICE_CONSTANT
1.8897268770

LATTICE_VECTORS
        3.8718759042        0.0000000000        0.0000000000
        1.9359379522        3.3531428934        0.0000000000
        1.9359379522        1.1177142978        3.1613734376

ATOMIC_POSITIONS
Direct

Si #label
0.0000   #magnetism
2 #number of atoms
        0.0000000000        0.0000000000        0.0000000000 m 1 1 1
        0.2500000000        0.2500000000        0.2500000000 m 1 1 1
