ATOMIC_SPECIES
Fe  55.8450 Fe.upf

NUMERICAL_ORBITAL
Fe_gga_8au_200.0Ry_4s2p2d1f.orb

LATTICE_CONSTANT
1.8897261246

LATTICE_VECTORS
2.83485 0 0
0 2.83485 0
0 0 2.83485

ATOMIC_POSITIONS
Direct

Fe
0.0000
2
0.0000 0.0000 0.0000
0.5000 0.5000 0.5000
